SCIP Status        : solving was interrupted [time limit reached]
Total Time         :    3600.00
  solving          :    3600.00
  presolving       :       0.41 (included in solving)
  reading          :       0.00
  copying          :       4.02 (77 #copies) (minimal 0.00, maximal 0.20, average 0.05)
Original Problem   :
  Problem name     : bbbenchmark/g05_100.9.cut
  Variables        : 101 (100 binary, 0 integer, 0 implicit integer, 1 continuous)
  Constraints      : 1 initial, 1 maximal
  Objective        : minimize, 1 non-zeros (abs.min = 1, abs.max = 1)
Presolved Problem  :
  Problem name     : t_bbbenchmark/g05_100.9.cut
  Variables        : 1801 (100 binary, 0 integer, 1685 implicit integer, 16 continuous)
  Constraints      : 1731 initial, 10404 maximal
  Objective        : minimize, 1 non-zeros (abs.min = 1, abs.max = 1)
  Nonzeros         : 8511 constraint, 202 clique table
Presolvers         :   ExecTime  SetupTime  Calls  FixedVars   AggrVars   ChgTypes  ChgBounds   AddHoles    DelCons    AddCons   ChgSides   ChgCoefs
  boundshift       :       0.00       0.00      0          0          0          0          0          0          0          0          0          0
  convertinttobin  :       0.00       0.00      0          0          0          0          0          0          0          0          0          0
  domcol           :       0.00       0.00      1          0          0          0          0          0          0          0          0          0
  dualagg          :       0.00       0.00      0          0          0          0          0          0          0          0          0          0
  dualcomp         :       0.00       0.00      1          0          0          0          0          0          0          0          0          0
  dualinfer        :       0.00       0.00      0          0          0          0          0          0          0          0          0          0
  dualsparsify     :       0.00       0.00      1          0          0          0          0          0          0          0          0          0
  gateextraction   :       0.00       0.00      0          0          0          0          0          0          0          0          0          0
  implics          :       0.00       0.00      2          0          0          0          0          0          0          0          0          0
  inttobinary      :       0.00       0.00      0          0          0          0          0          0          0          0          0          0
  qpkktref         :       0.00       0.00      0          0          0          0          0          0          0          0          0          0
  redvub           :       0.00       0.00      0          0          0          0          0          0          0          0          0          0
  sparsify         :       0.00       0.00      1          0          0          0          0          0          0          0          0          0
  stuffing         :       0.00       0.00      0          0          0          0          0          0          0          0          0          0
  trivial          :       0.00       0.00      4          0          0          0          0          0          0          0          0          0
  tworowbnd        :       0.00       0.00      0          0          0          0          0          0          0          0          0          0
  dualfix          :       0.00       0.00      4          0          0          0          0          0          0          0          0          0
  genvbounds       :       0.00       0.00      0          0          0          0          0          0          0          0          0          0
  probing          :       0.27       0.00      1          0          0          0          0          0          0          0          0          0
  pseudoobj        :       0.00       0.00      1          0          0          0          1          0          0          0          0          0
  symmetry         :       0.00       0.00      0          0          0          0          0          0          0          0          0          0
  vbounds          :       0.00       0.00      1          0          0          0          0          0          0          0          0          0
  varbound         :       0.00       0.00      2          0          0          0          0          0          0          0          0          0
  and              :       0.00       0.01      2          0          0          0          0          0          0          0          0          0
  linear           :       0.00       0.00      2          0          0          0          0          0          0          0          0          0
  logicor          :       0.00       0.00      0          0          0          0          0          0          0          0          0          0
  bounddisjunction :       0.00       0.00      0          0          0          0          0          0          0          0          0          0
  nonlinear        :       0.12       0.01      5          0          0          0          1          0          0       1730          0          0
  benders          :       0.00       0.00      0          0          0          0          0          0          0          0          0          0
  components       :       0.00       0.00      1          0          0          0          0          0          0          0          0          0
  root node        :          -          -      -          0          -          -         13          -          -          -          -          -
Constraints        :     Number  MaxNumber  #Separate #Propagate    #EnfoLP    #EnfoRelax  #EnfoPS    #Check   #ResProp    Cutoffs    DomReds       Cuts    Applied      Conss   Children
  benderslp        :          0          0          0          0     160751          0          0      13810          0          0          0          0          0          0          0
  integral         :          0          0          0          0     160751          0          0      13810          0          0        813          0          0        588     320618
  varbound         :         15         15        116     756031          0          0          0       3082          0          0      89830          0          0          0          0
  and              :       1685       1685     180041     884687          0          0          0       3082     387014          4    1854045        453        428          0          0
  linear           :         31+        47        116     884747          0          0          0       3080       1385         20     764442          0          0          0          0
  logicor          :          0+      7944          0     151314          0          0          0          0         71        395         80          0          0          0          0
  bounddisjunction :          0+       948          0      88408          0          0          0          0          2         60          5          0          0          0          0
  benders          :          0          0          0          0          0          0          0         30          0          0          0          0          0          0          0
  countsols        :          0          0          0          0          0          0          0         30          0          0          0          0          0          0          0
  components       :          0          0          0          0          0          0          0          0          0          0          0          0          0          0          0
Constraint Timings :  TotalTime  SetupTime   Separate  Propagate     EnfoLP     EnfoPS     EnfoRelax   Check    ResProp    SB-Prop
  benderslp        :       0.17       0.00       0.00       0.00       0.17       0.00       0.00       0.00       0.00       0.00
  integral         :      72.30       0.00       0.00       0.00      71.96       0.00       0.00       0.34       0.00       0.00
  varbound         :       1.36       0.00       0.00       1.33       0.00       0.00       0.00       0.02       0.00       0.01
  and              :     139.56       0.01      99.04      39.01       0.00       0.00       0.00       0.67       0.35       0.48
  linear           :       6.91       0.00       0.05       6.75       0.00       0.00       0.00       0.05       0.01       0.05
  logicor          :      10.79       0.00       0.00      10.77       0.00       0.00       0.00       0.00       0.00       0.02
  bounddisjunction :       2.20       0.00       0.00       2.20       0.00       0.00       0.00       0.00       0.00       0.00
  benders          :       0.00       0.00       0.00       0.00       0.00       0.00       0.00       0.00       0.00       0.00
  countsols        :       0.00       0.00       0.00       0.00       0.00       0.00       0.00       0.00       0.00       0.00
  components       :       0.23       0.00       0.00       0.23       0.00       0.00       0.00       0.00       0.00       0.00
Propagators        : #Propagate   #ResProp    Cutoffs    DomReds
  dualfix          :          4          0          0          0
  genvbounds       :          0          0          0          0
  nlobbt           :          0          0          0          0
  obbt             :          0          0          0          0
  probing          :          0          0          0          0
  pseudoobj        :     710994          0          0         27
  redcost          :     357600          0          0     288627
  rootredcost      :         10          0          0          0
  symmetry         :          0          0          0          0
  vbounds          :     158379          0          0          0
Propagator Timings :  TotalTime  SetupTime   Presolve  Propagate    ResProp    SB-Prop
  dualfix          :       0.00       0.00       0.00       0.00       0.00       0.00
  genvbounds       :       0.68       0.00       0.00       0.68       0.00       0.00
  nlobbt           :       0.00       0.00       0.00       0.00       0.00       0.00
  obbt             :       0.00       0.00       0.00       0.00       0.00       0.00
  probing          :       0.27       0.00       0.27       0.00       0.00       0.00
  pseudoobj        :       1.32       0.00       0.00       1.32       0.00       0.00
  redcost          :      21.78       0.00       0.00      21.78       0.00       0.00
  rootredcost      :       0.81       0.00       0.00       0.81       0.00       0.00
  symmetry         :       0.50       0.00       0.00       0.50       0.00       0.00
  vbounds          :       0.85       0.00       0.00       0.85       0.00       0.00
Conflict Analysis  :       Time      Calls    Success    DomReds  Conflicts   Literals    Reconvs ReconvLits   Dualrays   Nonzeros   LP Iters   (pool size: [10000,10000])
  propagation      :       0.05        460        362          -        479       67.0          0        0.0          -          -          -
  infeasible LP    :       0.13         82         82          -       3374      143.9          0        0.0        128      176.2          0
  bound exceed. LP :      17.64       5691       4985          -     116720      106.7          0        0.0          0        0.0      44357
  strong branching :       0.00          0          0          -          0        0.0          0        0.0          -          -          0
  pseudo solution  :       0.00          0          0          -          0        0.0          0        0.0          -          -          -
  applied globally :       0.54          -          -          0      26583      111.7          -          -        128          -          -
  applied locally  :          -          -          -          0          0        0.0          -          -          0          -          -
Separators         :   ExecTime  SetupTime      Calls  RootCalls    Cutoffs    DomReds  FoundCuts ViaPoolAdd  DirectAdd    Applied ViaPoolApp  DirectApp      Conss
  cut pool         :       3.46          -      33286        142          -          -      39172     498443          -          -          -          -          -    (maximal pool size:       1778)
  aggregation      :     303.82       0.00       4719        116          0          0          3          3          0          3          3          0          0
  > cmir           :          -          -          -          -          -          -          -          3          0          3          3          0          -
  > flowcover      :          -          -          -          -          -          -          -          0          0          0          0          0          -
  > knapsackcover  :          -          -          -          -          -          -          -          0          0          0          0          0          -
  cgmip            :       0.00       0.00          0          0          0          0          0          0          0          0          0          0          0
  clique           :       0.00       0.00        116        116          0          0          0          0          0          0          0          0          0
  closecuts        :       0.00       0.00          0          0          0          0          0          0          0          0          0          0          0
  convexproj       :       0.00       0.00          0          0          0          0          0          0          0          0          0          0          0
  disjunctive      :       0.00       0.00          0          0          0          0          0          0          0          0          0          0          0
  eccuts           :       0.00       0.00          0          0          0          0          0          0          0          0          0          0          0
  gauge            :       0.00       0.00          0          0          0          0          0          0          0          0          0          0          0
  gomory           :       0.00       0.00          0          0          0          0          0          0          0          0          0          0          0
  > gomorymi       :          -          -          -          -          -          -          -          0          0          0          0          0          -
  > strongcg       :          -          -          -          -          -          -          -          0          0          0          0          0          -
  impliedbounds    :       0.34       0.00       4719        116          0          0          0          0          0          0          0          0          0
  interlattice     :       0.32       0.00         40         40          0          0         40          0         40         40          0         40          0
  interminor       :       0.00       0.00          0          0          0          0          0          0          0          0          0          0          0
  intersub         :       1.00       0.00         40         40          0          0         40          0         40         40          0         40          0
  intobj           :       0.00       0.00          0          0          0          0          0          0          0          0          0          0          0
  mcf              :       0.00       0.00          1          1          0          0          0          0          0          0          0          0          0
  minor            :       0.01       0.00          0          0          0          0          0          0          0          0          0          0          0
  mixing           :       0.00       0.00       4719        116          0          0          0          0          0          0          0          0          0
  oddcycle         :       0.00       0.00          0          0          0          0          0          0          0          0          0          0          0
  rapidlearning    :       0.00       0.00          0          0          0          0          0          0          0          0          0          0          0
  rlt              :       0.00       0.00         10         10          0          0          0          0          0          0          0          0          0
  zerohalf         :      37.39       0.00       4163         20          0          0      39169     498440          0     109866     109866          0          0
Cutselectors       :   ExecTime  SetupTime      Calls  RootCalls   Selected     Forced   Filtered  RootSelec   RootForc   RootFilt 
  hybrid           :       0.43       0.00      13620        114     110377          0     388599        278          0         18
Pricers            :   ExecTime  SetupTime      Calls       Vars
  problem variables:       0.00          -          0          0
Branching Rules    :   ExecTime  SetupTime   BranchLP  BranchExt   BranchPS    Cutoffs    DomReds       Cuts      Conss   Children
  allfullstrong    :       0.00       0.00          0          0          0          0          0          0          0          0
  cloud            :       0.00       0.00          0          0          0          0          0          0          0          0
  distribution     :       0.00       0.00          0          0          0          0          0          0          0          0
  fullstrong       :       0.00       0.00          0          0          0          0          0          0          0          0
  inference        :       0.00       0.00          0          0          0          0          0          0          0          0
  leastinf         :       0.00       0.00          0          0          0          0          0          0          0          0
  lookahead        :       0.00       0.00          0          0          0          0          0          0          0          0
  mostinf          :       0.00       0.00          0          0          0          0          0          0          0          0
  multaggr         :       0.00       0.00          0          0          0          0          0          0          0          0
  nodereopt        :       0.00       0.00          0          0          0          0          0          0          0          0
  pscost           :       0.00       0.00          0          0          0          0          0          0          0          0
  random           :       0.00       0.00          0          0          0          0          0          0          0          0
  relpscost        :      71.54       0.00     160751          0          0          0        813          0        588     320618
  vanillafullstrong:       0.00       0.00          0          0          0          0          0          0          0          0
Primal Heuristics  :   ExecTime  SetupTime      Calls      Found       Best
  LP solutions     :       0.00          -          -          0          0
  relax solutions  :       0.00          -          -          0          0
  pseudo solutions :       0.00          -          -          0          0
  strong branching :       0.02          -          -          0          0
  actconsdiving    :       0.00       0.00          0          0          0
  adaptivediving   :       3.44       0.00         30          0          0
  alns             :       3.76       0.00         27          3          3
  bound            :       0.00       0.00          0          0          0
  clique           :       0.01       0.00          1          0          0
  coefdiving       :       0.00       0.00          0          0          0
  completesol      :       0.00       0.00          0          0          0
  conflictdiving   :     136.31       0.00       1022          0          0
  crossover        :       1.76       0.00          2          0          0
  dins             :       0.00       0.00          0          0          0
  distributiondivin:      68.21       0.00        291          0          0
  dps              :       0.00       0.00          0          0          0
  dualval          :       0.00       0.00          0          0          0
  farkasdiving     :       0.01       0.00          0          0          0
  feaspump         :       0.31       0.00          1          1          1
  fixandinfer      :       0.00       0.00          0          0          0
  fracdiving       :      50.05       0.00        431          1          1
  gins             :       0.20       0.00          0          0          0
  guideddiving     :      50.35       0.00        381          2          2
  indicator        :       0.20       0.00          0          0          0
  indicatordiving  :       0.00       0.00          0          0          0
  intdiving        :       0.00       0.00          0          0          0
  intshifting      :       0.62       0.00         79          0          0
  linesearchdiving :      47.31       0.00        377          1          1
  localbranching   :       0.00       0.00          0          0          0
  locks            :       0.01       0.00          1          0          0
  lpface           :       0.22       0.00          0          0          0
  mpec             :      89.90       0.00         11          0          0
  multistart       :       0.00       0.00          0          0          0
  mutation         :       0.00       0.00          0          0          0
  nlpdiving        :      20.57       0.00          3          0          0
  objpscostdiving  :      46.55       0.00         61         11          0
  octane           :       0.00       0.00          0          0          0
  ofins            :       0.14       0.00          0          0          0
  oneopt           :       0.22       0.00         14          0          0
  padm             :       0.00       0.00          0          0          0
  proximity        :       0.00       0.00          0          0          0
  pscostdiving     :      45.73       0.00        327          0          0
  randrounding     :       2.26       0.00      13777          0          0
  rens             :       0.00       0.00          0          0          0
  reoptsols        :       0.00       0.00          0          0          0
  repair           :       0.00       0.00          0          0          0
  rins             :      13.50       0.00         47          3          3
  rootsoldiving    :      24.51       0.00         40          0          0
  rounding         :       1.51       0.00       5724          0          0
  shiftandpropagate:       0.00       0.00          0          0          0
  shifting         :      40.87       0.00      10100          2          2
  simplerounding   :       0.18       0.00          0          0          0
  subnlp           :     262.60       0.00          0          0          0
  trivial          :       0.01       0.00          2          2          2
  trivialnegation  :       0.00       0.00          0          0          0
  trustregion      :       0.00       0.00          0          0          0
  trysol           :       0.27       0.00          0          0          0
  twoopt           :       0.00       0.00          0          0          0
  undercover       :       2.57       0.00          1          1          1
  vbounds          :       0.00       0.00          0          0          0
  veclendiving     :      46.71       0.00        367          0          0
  zeroobj          :       0.00       0.00          0          0          0
  zirounding       :       0.43       0.00       1000          0          0
  other solutions  :          -          -          -          0          -
Diving (single)    :      Calls      Nodes   LP Iters Backtracks  Conflicts   MinDepth   MaxDepth   AvgDepth  RoundSols  NLeafSols  MinSolDpt  MaxSolDpt  AvgSolDpt
  actconsdiving    :          0          -          -          -          -          -          -          -          -          -          -          -          -
  coefdiving       :          0          -          -          -          -          -          -          -          -          -          -          -          -
  conflictdiving   :       1022      44136    1239706       1077      53446         49         87       66.0          0          -          -          -          -
  distributiondivin:        291      11268     424765        330       5067         49         69       60.7          0          -          -          -          -
  farkasdiving     :          0          -          -          -          -          -          -          -          -          -          -          -          -
  fracdiving       :        431      36612     428841        114       1908         63        248      107.9          0          1        103        103      103.0
  guideddiving     :        381      31267     442436        235       7896         64        201      104.2          0          2        120        127      123.5
  indicatordiving  :          0          -          -          -          -          -          -          -          -          -          -          -          -
  linesearchdiving :        377      15208     431618        260      16073         46         87       63.1          0          1         74         74       74.0
  pscostdiving     :        327      14049     423276        340      10215         56         82       65.4          0          -          -          -          -
  veclendiving     :        367      15911     421417        307      21960         55         85       65.6          0          -          -          -          -
Diving (adaptive)  :      Calls      Nodes   LP Iters Backtracks  Conflicts   MinDepth   MaxDepth   AvgDepth  RoundSols  NLeafSols  MinSolDpt  MaxSolDpt  AvgSolDpt
  actconsdiving    :          3         94       2823          2         35         59         60       59.3          0          -          -          -          -
  coefdiving       :         10        385       9069          5        449         53         92       66.7          0          -          -          -          -
  conflictdiving   :          0          -          -          -          -          -          -          -          -          -          -          -          -
  distributiondivin:          0          -          -          -          -          -          -          -          -          -          -          -          -
  farkasdiving     :          0          -          -          -          -          -          -          -          -          -          -          -          -
  fracdiving       :          0          -          -          -          -          -          -          -          -          -          -          -          -
  guideddiving     :          2        134       1821          0          0         86         91       88.5          0          -          -          -          -
  indicatordiving  :          0          -          -          -          -          -          -          -          -          -          -          -          -
  linesearchdiving :          7        348       8192          3        317         62         86       71.1          0          -          -          -          -
  pscostdiving     :          3        131       3940          3        117         63         66       64.3          0          -          -          -          -
  veclendiving     :          5        215       3794          1        179         59         77       68.2          0          -          -          -          -
Neighborhoods      :      Calls  SetupTime  SolveTime SolveNodes       Sols       Best       Exp3  EpsGreedy        UCB TgtFixRate  Opt  Inf Node Stal  Sol  Usr Othr Actv
  rens             :          3       0.29       0.24         99          0          0    0.00000   -1.00000    0.46452      0.662    0    2    0    1    0    0    0    1
  rins             :          2       0.06       0.08         75          0          0    0.00000   -1.00000    0.47613      0.850    0    1    0    1    0    0    0    1
  mutation         :          3       0.13       0.57        413          1          1    0.00000   -1.00000    0.49082      0.662    1    1    0    1    0    0    0    1
  localbranching   :         11       0.70       0.37        646          2          2    0.00000   -1.00000    0.53473      0.884    1    2    0    8    0    0    0    1
  crossover        :          3       0.25       0.25         93          0          0    0.00000   -1.00000    0.46478      0.662    0    2    0    1    0    0    0    1
  proximity        :          2       0.12       0.23         99          0          0    0.00000   -1.00000    0.46813      0.850    0    1    0    1    0    0    0    1
  zeroobjective    :          1       0.03       0.02         50          0          0    0.00000   -1.00000    0.52302      0.900    0    0    0    1    0    0    0    1
  dins             :          2       0.09       0.05         80          0          0    0.00000   -1.00000    0.47517      0.850    0    1    0    1    0    0    0    1
  trustregion      :          0       0.00       0.00          0          0          0    0.00000   -1.00000    1.00000      0.900    0    0    0    0    0    0    0    0
Expressions        :   #IntEval  IntEvalTi   #RevProp  RevPropTi    DomReds    Cutoffs  #Estimate  EstimTime  Branching  #Simplify SimplifyTi Simplified
  pow              :          0       0.00          0       0.00          0          0          0       0.00          0          0       0.00          0
  prod             :       9900       0.00          0       0.00          0          0          0       0.00          0       6635       0.00          0
  sum              :          8       0.00          2       0.00          0          0          0       0.00          0          3       0.02          2
  var              :       6212       0.00          0       0.00          0          0          0       0.00          0      15273       0.00          0
  varidx           :          0       0.00          0       0.00          0          0          0       0.00          0          0       0.00          0
LP                 :       Time      Calls Iterations  Iter/call   Iter/sec  Time-0-It Calls-0-It    ItLimit
  primal LP        :     152.07      21182          0       0.00       0.00     151.95      21182
  dual LP          :    1603.94     292638    8175303      30.26    5097.01      10.72      22472
  lex dual LP      :       0.00          0          0       0.00          -
  barrier LP       :       0.00          0          0       0.00          -       0.00          0
  resolve instable :       0.00          0          0       0.00          -
  diving/probing LP:     437.64      16045    4215331     262.72    9631.96
  strong branching :      24.07       1793     176036      98.18    7313.50          -          -        845
    (at root node) :          -         22       7270     330.45          -
  conflict analysis:       7.38       4744      44357       9.35    6010.43
NLP relaxation     :
  solve time       :      19.88 (21 calls)
  convexity        :  nonconvex (46 linear rows, 0 convex ineq., 0 nonconvex ineq., 1685 nonlinear eq. or two-sided ineq.)
NLP Solvers        :  #Problems  ProblemTi    #Solves  SolveTime      #Iter  Time/Iter      #Okay #TimeLimit #IterLimit #LObjLimit #Interrupt  #NumError #EvalError  #OutOfMem #LicenseEr #OtherTerm   #GlobOpt    #LocOpt  #Feasible #LocInfeas #GlobInfea #Unbounded   #Unknown
  ipopt            :         12      11.03         53     111.19       1814       0.06         51          0          2          0          0          0          0          0          0          0          0         34          0         16          0          0          3
B&B Tree           :
  number of runs   :          1
  nodes            :     256134 (160309 internal, 95825 leaves)
  feasible leaves  :          0
  infeas. leaves   :         22
  objective leaves :      95803
  nodes (total)    :     256134 (160309 internal, 95825 leaves)
  nodes left       :      64085
  max depth        :         79
  max depth (total):         79
  backtracks       :      55822 (21.8%)
  early backtracks :          0 (0.0%)
  nodes exc. ref.  :          0 (0.0%)
  delayed cutoffs  :          4
  repropagations   :        100 (342 domain reductions, 0 cutoffs)
  avg switch length:       6.50
  switching time   :     221.04
Estim. Tree Size   :     513068
Estimation Tree    : 320619 nodes (256534 visited, 160309 internal, 96225 leaves, 64085 open), weight: 0.0000 completed 0.1103
Estimations        :      estim      value      trend resolution     smooth
  wbe              : 27025204986634480          -          -          -          -
  tree-profile     :         -1          -          -          -          -
  gap              :    8221530    0.67407    0.00001        128    8410502
  tree-weight      :     513068    0.00000    0.00000        128     511809
  leaf-frequency   :     513068    0.37509   -0.00013        128     511810
  ssg              :   12046759    0.82585   -0.00002        128   12482809
  open-nodes       :     513068 64085.00000  150.85893        128     511809
Root Node          :
  First LP value   : -1.00000000000000e+00
  First LP Iters   :       1688 (11253.33 Iter/sec)
  First LP Time    :       0.15
  Final Dual Bound : -9.46025414520534e-01
  Final Root Iters :       5826
  Root LP Estimate : -4.34379280750935e-01
Solution           :
  Solutions found  :         27 (16 improvements)
  First Solution   : +1.00000000000000e+05   (in run 1, after 0 nodes, 0.04 seconds, depth 0, found by <trivial>)
  Gap First Sol.   :   infinite
  Gap Last Sol.    :      50.68 %
  Primal Bound     : -5.64040404040402e-01   (in run 1, after 93987 nodes, 1409.54 seconds, depth 20, found by <alns>)
  Dual Bound       : -8.36770691926977e-01
  Gap              :      48.35 %
Integrals          :      Total       Avg%
  primal-dual      :  125955.06      34.99
  primal-ref       :          -          - (not evaluated)
  dual-ref         :          -          - (not evaluated)
